p cnf 139 239               
-3 18 0
-1 17 0
-2 17 0
1 2 -17 0
-17 18 0
3 17 -18 0
18 57 0
-6 20 0
-4 19 0
-5 19 0
4 5 -19 0
-19 20 0
6 19 -20 0
20 25 0
18 25 0
-20 -18 -25 0
25 -31 0
-18 26 0
-20 26 0
18 20 -26 0
26 27 0
-9 22 0
-7 21 0
-8 21 0
7 8 -21 0
-21 22 0
9 21 -22 0
22 27 0
-26 -22 -27 0
27 -31 0
-22 28 0
-26 28 0
22 26 -28 0
28 29 0
-12 24 0
-10 23 0
-11 23 0
10 11 -23 0
-23 24 0
12 23 -24 0
24 29 0
-28 -24 -29 0
29 -31 0
-24 30 0
-28 30 0
24 28 -30 0
30 -31 0
-25 -27 -29 -30 31 0
-31 -18 53 0
31 -13 53 0
-18 -13 53 0
-53 57 0
20 58 0
-31 -20 54 0
31 -14 54 0
-20 -14 54 0
-54 58 0
22 59 0
-31 -22 55 0
31 -15 55 0
-22 -15 55 0
-55 59 0
24 60 0
-31 -24 56 0
31 -16 56 0
-24 -16 56 0
-56 60 0
-57 -58 -59 -60 61 0
-61 -62 0
31 -62 0
-11 39 0
-8 36 0
-2 33 0
-5 33 0
2 5 -33 0
-33 36 0
8 33 -36 0
-36 39 0
11 36 -39 0
-10 38 0
-7 35 0
-1 32 0
-4 32 0
1 4 -32 0
-32 35 0
7 32 -35 0
-35 38 0
10 35 -38 0
-39 -38 -41 0
41 -45 0
-38 42 0
-39 42 0
38 39 -42 0
-12 40 0
-9 37 0
-3 34 0
-6 34 0
3 6 -34 0
-34 37 0
9 34 -37 0
-37 40 0
12 37 -40 0
-42 -40 -43 0
43 -45 0
40 42 -44 0
44 -45 0
45 -62 0
-14 -13 -46 0
46 -52 0
-13 47 0
-14 47 0
13 14 -47 0
-47 -15 -48 0
48 -52 0
-15 49 0
-47 49 0
15 47 -49 0
-49 -16 -50 0
50 -52 0
16 49 -51 0
51 -52 0
52 -62 0
-1 2 -63 0
63 -77 0
-1 -2 64 0
1 2 64 0
-2 2 64 0
-4 5 -65 0
-64 65 -66 0
66 -77 0
-4 -5 67 0
4 5 67 0
-5 5 67 0
-64 -67 68 0
-7 8 -69 0
-68 69 -70 0
70 -77 0
-7 -8 71 0
7 8 71 0
-8 8 71 0
-68 -71 72 0
-10 11 -73 0
-72 73 -74 0
74 -77 0
77 -138 0
-2 3 -78 0
78 -92 0
-2 -3 79 0
2 3 79 0
-3 3 79 0
-5 6 -80 0
-79 80 -81 0
81 -92 0
-5 -6 82 0
5 6 82 0
-6 6 82 0
-79 -82 83 0
-8 9 -84 0
-83 84 -85 0
85 -92 0
-8 -9 86 0
8 9 86 0
-9 9 86 0
-83 -86 87 0
-11 12 -88 0
-87 88 -89 0
89 -92 0
92 -138 0
-13 14 -93 0
93 -107 0
-13 -14 94 0
13 14 94 0
-14 14 94 0
-1 4 -95 0
-94 95 -96 0
96 -107 0
-1 -4 97 0
1 4 97 0
-4 4 97 0
-94 -97 98 0
-2 5 -99 0
-98 99 -100 0
100 -107 0
-2 -5 101 0
2 5 101 0
-5 5 101 0
-98 -101 102 0
-3 6 -103 0
-102 103 -104 0
104 -107 0
107 -138 0
-14 15 -108 0
108 -122 0
-14 -15 109 0
14 15 109 0
-15 15 109 0
-4 7 -110 0
-109 110 -111 0
111 -122 0
-4 -7 112 0
4 7 112 0
-7 7 112 0
-109 -112 113 0
-5 8 -114 0
-113 114 -115 0
115 -122 0
-5 -8 116 0
5 8 116 0
-8 8 116 0
-113 -116 117 0
-6 9 -118 0
-117 118 -119 0
119 -122 0
122 -138 0
-15 16 -123 0
123 -137 0
-15 -16 124 0
15 16 124 0
-16 16 124 0
-7 10 -125 0
-124 125 -126 0
126 -137 0
-7 -10 127 0
7 10 127 0
-10 10 127 0
-124 -127 128 0
-8 11 -129 0
-128 129 -130 0
130 -137 0
-8 -11 131 0
8 11 131 0
-11 11 131 0
-128 -131 132 0
-9 12 -133 0
-132 133 -134 0
134 -137 0
137 -138 0
62 0
138 0
